15 2 
3550	3550	
917	582	594	
871	269	295	
157	609	637	
781	635	646	
914	936	1029	
418	169	178	
184	362	370	
888	278	302	
197	470	480	
67	472	486	
208	249	254	
640	201	215	
855	778	815	
771	539	586	
659	551	597	
